DIR: 0.0, EFF: 0.0, INT: 0.3, OBJ: 0.7
original problem has 232 variables (211 bin, 21 int, 0 impl, 0 cont) and 199 constraints
unknown variable <t_X00232> in line 2 of solution file </mnt/lscratch/users/dferrario/Adaptive-Cutsel-MILP/TransformedSolutions/22433__trans__seed__1.sol>
  (further unknown variables are ignored)
1/1 feasible solution given by solution candidate storage, new primal bound 2.147700e+04

presolving:
   (0.0s) running MILP presolver
   (0.0s) MILP presolver found nothing
   (0.0s) probing: 51/211 (24.2%) - 0 fixings, 0 aggregations, 0 implications, 0 bound changes
   (0.0s) probing aborted: 50/50 successive totally useless probings
presolving (1 rounds: 1 fast, 1 medium, 1 exhaustive):
 20 deleted vars, 1 deleted constraints, 1 added constraints, 1 tightened bounds, 0 added holes, 228 changed sides, 228 changed coefficients
 0 implications, 5 cliques
presolved problem has 212 variables (211 bin, 0 int, 1 impl, 0 cont) and 199 constraints
     67 constraints of type <knapsack>
      5 constraints of type <setppc>
      2 constraints of type <linear>
    125 constraints of type <logicor>
transformed objective value is always integral (scale: 1)
Presolving Time: 0.02

 time | node  | left  |LP iter|LP it/n|mem/heur|mdpt |vars |cons |rows |cuts |sepa|confs|strbr|  dualbound   | primalbound  |  gap   | compl. 
  0.0s|     1 |     0 |   689 |     - |  4016k |   0 | 212 | 199 | 199 |   0 |  0 |   0 |   0 | 2.124100e+04 | 2.147700e+04 |   1.11%| unknown
Computing relative interior point (time limit: 1e+20, iter limit: 6890) ...
  0.1s|     1 |     0 |   880 |     - |    12M |   0 | 212 | 199 | 209 |  10 |  1 |   0 |   0 | 2.124247e+04 | 2.147700e+04 |   1.10%| unknown
  0.2s|     1 |     0 |   956 |     - |    22M |   0 | 213 | 199 | 219 |  20 |  2 |   0 |   0 | 2.124247e+04 | 2.147700e+04 |   1.10%| unknown
  0.2s|     1 |     0 |   956 |     - |    22M |   0 | 213 | 199 | 219 |  20 |  2 |   0 |   0 | 2.124403e+04 | 2.147700e+04 |   1.10%| unknown
  0.3s|     1 |     0 |  1115 |     - |    32M |   0 | 213 | 199 | 229 |  30 |  3 |   0 |   0 | 2.124586e+04 | 2.147700e+04 |   1.09%| unknown
  0.3s|     1 |     0 |  1317 |     - |    44M |   0 | 213 | 199 | 239 |  40 |  4 |   0 |   0 | 2.124685e+04 | 2.147700e+04 |   1.08%| unknown
  0.4s|     1 |     0 |  1431 |     - |    52M |   0 | 213 | 199 | 249 |  50 |  5 |   0 |   0 | 2.124792e+04 | 2.147700e+04 |   1.08%| unknown
  0.5s|     1 |     0 |  1569 |     - |    66M |   0 | 213 | 199 | 259 |  60 |  6 |   0 |   0 | 2.124832e+04 | 2.147700e+04 |   1.08%| unknown
  0.5s|     1 |     0 |  1717 |     - |    68M |   0 | 213 | 199 | 256 |  66 |  7 |   0 |   0 | 2.125834e+04 | 2.147700e+04 |   1.03%| unknown
  0.6s|     1 |     0 |  1931 |     - |    74M |   0 | 213 | 199 | 266 |  76 |  8 |   0 |   0 | 2.126014e+04 | 2.147700e+04 |   1.02%| unknown
  0.7s|     1 |     0 |  2049 |     - |    83M |   0 | 213 | 199 | 274 |  84 |  9 |   0 |   0 | 2.126164e+04 | 2.147700e+04 |   1.01%| unknown
  0.8s|     1 |     0 |  2249 |     - |    96M |   0 | 213 | 199 | 254 |  94 | 10 |   0 |   0 | 2.126535e+04 | 2.147700e+04 |   1.00%| unknown
  0.9s|     1 |     0 |  2434 |     - |   100M |   0 | 213 | 199 | 264 | 104 | 11 |   0 |   0 | 2.127494e+04 | 2.147700e+04 |   0.95%| unknown
  0.9s|     1 |     0 |  2531 |     - |   103M |   0 | 213 | 199 | 274 | 114 | 12 |   0 |   0 | 2.128561e+04 | 2.147700e+04 |   0.90%| unknown
  1.0s|     1 |     0 |  2642 |     - |   114M |   0 | 213 | 199 | 260 | 124 | 13 |   0 |   0 | 2.128682e+04 | 2.147700e+04 |   0.89%| unknown
 time | node  | left  |LP iter|LP it/n|mem/heur|mdpt |vars |cons |rows |cuts |sepa|confs|strbr|  dualbound   | primalbound  |  gap   | compl. 
  1.1s|     1 |     0 |  2666 |     - |   116M |   0 | 213 | 199 | 270 | 134 | 14 |   0 |   0 | 2.128767e+04 | 2.147700e+04 |   0.89%| unknown
  1.1s|     1 |     0 |  2701 |     - |   127M |   0 | 213 | 199 | 280 | 144 | 15 |   0 |   0 | 2.128797e+04 | 2.147700e+04 |   0.89%| unknown
  1.2s|     1 |     0 |  2726 |     - |   134M |   0 | 213 | 199 | 290 | 154 | 16 |   0 |   0 | 2.128814e+04 | 2.147700e+04 |   0.89%| unknown
  1.3s|     1 |     0 |  2788 |     - |   136M |   0 | 213 | 199 | 273 | 164 | 17 |   0 |   0 | 2.128900e+04 | 2.147700e+04 |   0.88%| unknown
  1.4s|     1 |     0 |  2953 |     - |   138M |   0 | 213 | 199 | 283 | 174 | 18 |   0 |   0 | 2.128937e+04 | 2.147700e+04 |   0.88%| unknown
  1.5s|     1 |     0 |  2993 |     - |   152M |   0 | 213 | 199 | 293 | 184 | 19 |   0 |   0 | 2.128966e+04 | 2.147700e+04 |   0.88%| unknown
  1.6s|     1 |     0 |  3031 |     - |   158M |   0 | 213 | 199 | 303 | 194 | 20 |   0 |   0 | 2.129015e+04 | 2.147700e+04 |   0.88%| unknown
  1.7s|     1 |     0 |  3053 |     - |   160M |   0 | 213 | 199 | 313 | 204 | 21 |   0 |   0 | 2.129027e+04 | 2.147700e+04 |   0.88%| unknown
  1.8s|     1 |     0 |  3100 |     - |   161M |   0 | 213 | 199 | 323 | 214 | 22 |   0 |   0 | 2.129059e+04 | 2.147700e+04 |   0.88%| unknown
  1.9s|     1 |     0 |  3142 |     - |   162M |   0 | 213 | 199 | 297 | 224 | 23 |   0 |   0 | 2.129075e+04 | 2.147700e+04 |   0.87%| unknown
  2.0s|     1 |     0 |  3187 |     - |   178M |   0 | 213 | 199 | 307 | 234 | 24 |   0 |   0 | 2.129096e+04 | 2.147700e+04 |   0.87%| unknown
  2.1s|     1 |     0 |  3202 |     - |   184M |   0 | 213 | 199 | 317 | 244 | 25 |   0 |   0 | 2.129102e+04 | 2.147700e+04 |   0.87%| unknown
  2.2s|     1 |     0 |  3327 |     - |   187M |   0 | 213 | 199 | 321 | 248 | 26 |   0 |   0 | 2.129200e+04 | 2.147700e+04 |   0.87%| unknown
  2.4s|     1 |     0 |  3445 |     - |   190M |   0 | 213 | 199 | 331 | 258 | 27 |   0 |   0 | 2.129200e+04 | 2.147700e+04 |   0.87%| unknown
  2.5s|     1 |     0 |  3497 |     - |   191M |   0 | 213 | 199 | 291 | 268 | 28 |   0 |   0 | 2.129244e+04 | 2.147700e+04 |   0.87%| unknown
 time | node  | left  |LP iter|LP it/n|mem/heur|mdpt |vars |cons |rows |cuts |sepa|confs|strbr|  dualbound   | primalbound  |  gap   | compl. 
  2.6s|     1 |     0 |  3538 |     - |   202M |   0 | 213 | 199 | 301 | 278 | 29 |   0 |   0 | 2.129286e+04 | 2.147700e+04 |   0.86%| unknown
  2.7s|     1 |     0 |  3579 |     - |   217M |   0 | 213 | 199 | 311 | 288 | 30 |   0 |   0 | 2.129342e+04 | 2.147700e+04 |   0.86%| unknown
  2.9s|     1 |     0 |  3621 |     - |   221M |   0 | 213 | 199 | 321 | 298 | 31 |   0 |   0 | 2.129443e+04 | 2.147700e+04 |   0.86%| unknown
  3.0s|     1 |     0 |  3823 |     - |   224M |   0 | 213 | 199 | 331 | 308 | 32 |   0 |   0 | 2.129518e+04 | 2.147700e+04 |   0.85%| unknown
  3.2s|     1 |     0 |  3881 |     - |   226M |   0 | 213 | 199 | 282 | 318 | 33 |   0 |   0 | 2.129566e+04 | 2.147700e+04 |   0.85%| unknown
  3.3s|     1 |     0 |  3924 |     - |   229M |   0 | 213 | 199 | 292 | 328 | 34 |   0 |   0 | 2.129600e+04 | 2.147700e+04 |   0.85%| unknown
  3.4s|     1 |     0 |  3945 |     - |   244M |   0 | 213 | 199 | 302 | 338 | 35 |   0 |   0 | 2.129622e+04 | 2.147700e+04 |   0.85%| unknown
  3.5s|     1 |     0 |  3957 |     - |   256M |   0 | 213 | 199 | 312 | 348 | 36 |   0 |   0 | 2.129627e+04 | 2.147700e+04 |   0.85%| unknown
  3.6s|     1 |     0 |  3975 |     - |   261M |   0 | 213 | 199 | 322 | 358 | 37 |   0 |   0 | 2.129634e+04 | 2.147700e+04 |   0.85%| unknown
  3.7s|     1 |     0 |  3986 |     - |   262M |   0 | 213 | 199 | 332 | 368 | 38 |   0 |   0 | 2.129638e+04 | 2.147700e+04 |   0.85%| unknown
  3.8s|     1 |     0 |  4005 |     - |   264M |   0 | 213 | 199 | 299 | 378 | 39 |   0 |   0 | 2.129644e+04 | 2.147700e+04 |   0.85%| unknown
  3.9s|     1 |     0 |  4025 |     - |   266M |   0 | 213 | 199 | 309 | 388 | 40 |   0 |   0 | 2.129650e+04 | 2.147700e+04 |   0.85%| unknown
  4.1s|     1 |     0 |  4048 |     - |   267M |   0 | 213 | 199 | 319 | 398 | 41 |   0 |   0 | 2.129653e+04 | 2.147700e+04 |   0.85%| unknown
  4.2s|     1 |     0 |  4071 |     - |   268M |   0 | 213 | 199 | 329 | 408 | 42 |   0 |   0 | 2.129657e+04 | 2.147700e+04 |   0.85%| unknown
  4.3s|     1 |     0 |  4098 |     - |   270M |   0 | 213 | 199 | 339 | 418 | 43 |   0 |   0 | 2.129666e+04 | 2.147700e+04 |   0.85%| unknown
 time | node  | left  |LP iter|LP it/n|mem/heur|mdpt |vars |cons |rows |cuts |sepa|confs|strbr|  dualbound   | primalbound  |  gap   | compl. 
  4.4s|     1 |     0 |  4126 |     - |   271M |   0 | 213 | 199 | 349 | 428 | 44 |   0 |   0 | 2.129678e+04 | 2.147700e+04 |   0.85%| unknown
  4.6s|     1 |     0 |  4137 |     - |   299M |   0 | 213 | 199 | 308 | 438 | 45 |   0 |   0 | 2.129679e+04 | 2.147700e+04 |   0.85%| unknown
  4.7s|     1 |     0 |  4146 |     - |   301M |   0 | 213 | 199 | 317 | 447 | 46 |   0 |   0 | 2.129685e+04 | 2.147700e+04 |   0.85%| unknown
  4.8s|     1 |     0 |  4170 |     - |   305M |   0 | 213 | 199 | 326 | 456 | 47 |   0 |   0 | 2.129688e+04 | 2.147700e+04 |   0.85%| unknown
  5.0s|     1 |     0 |  4203 |     - |   307M |   0 | 213 | 199 | 335 | 465 | 48 |   0 |   0 | 2.129717e+04 | 2.147700e+04 |   0.84%| unknown
  5.1s|     1 |     0 |  4206 |     - |   307M |   0 | 213 | 199 | 341 | 471 | 49 |   0 |   0 | 2.129800e+04 | 2.147700e+04 |   0.84%| unknown
  5.1s|     1 |     0 |  4226 |     - |   307M |   0 | 213 | 199 | 351 | 481 | 50 |   0 |   0 | 2.129800e+04 | 2.147700e+04 |   0.84%| unknown
  5.1s|     1 |     2 |  4226 |     - |   307M |   0 | 213 | 199 | 351 | 481 | 50 |   0 |   0 | 2.129800e+04 | 2.147700e+04 |   0.84%| unknown

SCIP Status        : solving was interrupted [node limit reached]
Solving Time (sec) : 5.13
Solving Nodes      : 1
Primal Bound       : +2.14770000000000e+04 (1 solutions)
Dual Bound         : +2.12980000000000e+04
Gap                : 0.84 %
